c instancia_17  vars=15  clausulas=25  k=2
p cnf 15 25
10 4 0
1 -3 0
-4 1 0
-1 -8 0
-2 -1 0
-7 -12 0
11 -12 0
-11 7 0
-10 3 0
15 -14 0
2 10 0
9 4 0
6 15 0
13 14 0
5 -11 0
2 15 0
14 12 0
-5 3 0
8 11 0
6 -14 0
3 -10 0
8 -5 0
-15 14 0
-5 15 0
15 -11 0
